numOfMachines = 4;
numOfRobots = 2;
numOfJobs = 8;
maxOperations = 3;
operationsCount = [2,2,2,2,2,3,3,3];

operation = [
[<0,0,0>,<1,12,0>,<4,12,0>],
[<0,0,0>,<2,22,0>,<4,18,1>],
[<0,0,0>,<2,18,0>,<4,14,0>],
[<0,0,0>,<3,32,0>,<4,14,0>],
[<0,0,0>,<1,18,0>,<3,36,0>],
[<0,0,0>,<2,26,0>,<3,38,0>,<4,12,0>],
[<0,0,0>,<1,20,0>,<2,18,0>,<3,26,0>],
[<0,0,0>,<1,22,0>,<2,18,0>,<4,16,1>]
];